
  32    1
  10

   0   0   3 2 5 6 
   3   7   3 11 4 3 
   8   6   4 16 14 9 8 
   6   9   3 12 8 7 
   6  10   3 12 8 7 
   8   6   6 18 16 15 14 13 12 
  10   6   3 16 15 10 
   6  10   2 15 10 
   7   8   2 12 10 
  10   6   4 20 19 18 13 
   4  10   3 18 15 13 
   4  10   4 24 21 19 17 
   1   7   3 24 21 17 
   1  10   3 24 21 19 
   8   9   2 21 20 
   1  10   2 21 17 
   7   5   3 27 26 22 
   5   6   3 27 26 22 
   9  10   3 27 26 23 
   3  10   3 31 27 24 
   4   9   2 26 22 
   6   8   1 23 
   8   7   2 31 25 
   8   6   2 26 25 
   8   8   3 30 29 28 
   3  10   3 30 29 28 
  10   5   1 28 
   1   7   1 32
   1  10   1 32
   4  10   1 32
   1   5   1 32
   0   0   0 
